ssat_solver_solve2
#level: 2
Abc_NtkNodeNum(s->pNtk): 627  , BDD limit: 10240
level 1: 20 element
Exist
existence_eliminate_scope
Abc_NtkIsBddLogic(pNtk): 0
Abc_NtkIsStrash(pNtk): 1
existence_eliminate_scope_aig
exist by BDD failed
Abc_NtkNodeNum(s->pNtk): 26601631  , BDD limit: 31921957
Build BDD success
level 0: 20 element
Random
c ssat solving in ABC
#var: 40
s SATISFIABLE
  > Upper bound = 1.880007e-01
  > Lower bound = 1.880007e-01
FINISHED CPU 1030.00 MEM 0 MAXMEM 5017908 STALE 0 MAXMEM_RSS 4619056
<time name="ALL">1030000</time>
real 1030.22
user 1191.98
sys 457.86
